1530
7744
461
2383
2783
3210
8608
4965
3196
2908
4000
3559
1525
4174
4975
7697
944
3635
9933
6625
8892
1004
6941
3085
3738
5225
8377
7943
2433
3662
1518
5940
4711
8721
4912
1398
1040
8432
5161
7559
7235
696
2153
5985
9831
2480
1698
9756
6540
8831
1136
